ddr.lp.sol
w_r_0 0
w_l_0 0
xt_0 0
yt_0 0
s_0 0
s_1 0
s_2 0
s_3 0
s_4 0
s_5 0
s_6 0
s_7 0
s_8 0
s_9 0
s_10 0
s_11 0
s_12 0
s_13 0
s_14 0
s_15 0
s_16 0
s_17 0
s_18 0
s_19 0
s_20 0
s_21 0
s_22 0
s_23 0
s_24 0
s_25 0
s_26 0
s_27 0
s_28 0
s_29 0
s_30 0
s_31 0
s_32 0
s_33 0
s_34 0
s_35 0
s_36 0
s_37 0
s_38 0
s_39 0
w_r_1 0.0335543
w_l_1 0
xt_1 0
yt_1 0
s_40 0
s_41 0
s_42 0
s_43 0
s_44 0
s_45 0
s_46 0
s_47 0
s_48 0
s_49 0
s_50 0
s_51 0
s_52 0
s_53 0
s_54 0
s_55 0
s_56 0
s_57 0
s_58 0
s_59 0
s_60 0
s_61 0
s_62 0
s_63 0
s_64 0
s_65 0
s_66 0
s_67 0
s_68 0
s_69 0
s_70 0
s_71 0
s_72 0
s_73 0
s_74 0
s_75 0
s_76 0
s_77 0
s_78 0
s_79 0
s_80 0
s_81 0
s_82 0
s_83 0
s_84 0
s_85 0
s_86 0
s_87 0
s_88 0
s_89 0
w_r_2 0
w_l_2 0
xt_2 0
yt_2 0
s_90 0
s_91 0
s_92 0
s_93 0
s_94 0
s_95 0
s_96 0
s_97 0
s_98 0
s_99 0
s_100 0
s_101 0
s_102 0
s_103 0
s_104 0
s_105 0
s_106 0
s_107 0
s_108 0
s_109 0
s_110 0
s_111 0
s_112 0
s_113 0
s_114 0
s_115 0
s_116 0
s_117 0
s_118 0
s_119 0
s_120 0
s_121 0
s_122 0
s_123 0
s_124 0
s_125 0
s_126 0
s_127 0
s_128 0
s_129 0
s_130 0
s_131 0
s_132 0
s_133 0
s_134 0
s_135 0
s_136 0
s_137 0
s_138 0
s_139 0
s_140 0
w_l_5 0
xt_5 0
yt_5 0
s_141 0
s_142 0
s_143 0
s_144 0
s_145 0
s_146 0
s_147 0
s_148 0
s_149 0
s_150 0
s_151 0
s_152 0
s_153 0
s_154 0
s_155 0
s_156 0
s_157 0
s_158 0
s_159 0
s_160 0
s_161 0
s_162 0
s_163 0
s_164 0
s_165 0
s_166 0
s_167 0
s_168 0
s_169 0
s_170 0
s_171 0
s_172 0
s_173 0
s_174 0
s_175 0
s_176 0
s_177 0
s_178 0
s_179 0
s_180 0
s_181 0
w_l_6 0
xt_6 0
yt_6 0
s_182 0
s_183 0
s_184 0
s_185 0
s_186 0
s_187 0
s_188 0
s_189 0
s_190 0
s_191 0
s_192 0
s_193 0
s_194 0
s_195 0
s_196 0
s_197 0
s_198 0
s_199 0
s_200 0
s_201 0
s_202 0
s_203 0
s_204 0
s_205 0
w_r_7 0
xt_7 0
yt_7 0
s_206 0
s_207 0
s_208 0
s_209 0
s_210 0
w_r_8 0
w_l_8 0
xt_8 0
yt_8 0
s_211 0
s_212 0
s_213 0
s_214 0
s_215 0
s_216 0
s_217 0
s_218 0
s_219 0
s_220 0
s_221 0
s_222 0
s_223 0
s_224 0
s_225 0
s_226 0
s_227 0
s_228 0
s_229 0
s_230 0
s_231 0
s_232 0
s_233 0
s_234 0
s_235 0
s_236 0
s_237 0
s_238 0
s_239 0
s_240 0
s_241 0
s_242 0
s_243 0
s_244 0
s_245 0
s_246 0
s_247 0
s_248 0
s_249 0
s_250 0
s_251 0
s_252 0
s_253 0
w_r_9 0
w_l_9 0
xt_9 0
yt_9 0
s_254 0
s_255 0
s_256 0
s_257 0
s_258 0
s_259 0
s_260 0
s_261 0
s_262 0
s_263 0
s_264 0
s_265 0
s_266 0
s_267 0
s_268 0
s_269 0
s_270 0
s_271 0
s_272 0
s_273 0
s_274 0
s_275 0
s_276 0
s_277 0
s_278 0
s_279 0
s_280 0
s_281 0
s_282 0
s_283 0
s_284 0
s_285 0
s_286 0
s_287 0
s_288 0
s_289 0
s_290 0
s_291 0
s_292 0
s_293 0
s_294 0
s_295 0
s_296 0
w_r_10 0
w_l_10 0
xt_10 0
yt_10 0
s_297 0
s_298 0
s_299 0
s_300 0
s_301 0
s_302 0
s_303 0
s_304 0
s_305 0
s_306 0
s_307 0
s_308 0
s_309 0
s_310 0
s_311 0
s_312 0
s_313 0
s_314 0
s_315 0
s_316 0
s_317 0
s_318 0
s_319 0
s_320 0
s_321 0
s_322 0
s_323 0
s_324 0
s_325 0
s_326 0
s_327 0
s_328 0
s_329 0
s_330 0
s_331 0
s_332 0
s_333 0
s_334 0
s_335 0
s_336 0
s_337 0
s_338 0
s_339 0
y_0 135.85
x_0 121.71
y_1 137.75
x_1 127.285
y_2 137.15
x_2 131.56
y_5 138.05
x_5 127.685
y_6 136.475
x_6 121.685
y_7 134.9
x_7 119.96
y_8 137.425
x_8 132.885
y_9 137.775
x_9 132.385
y_10 137.5
x_10 132.735
B_0 0
B_1 0
B_2 0
B_5 0
B_6 0
B_7 0
B_8 0
B_9 0
B_10 0
